COLUMNS

passenger_count
pickup_ID
dropoff_ID
request_time_sec
pickup_district
dropoff_district
LDuals
IDuals
vehicle_ID
pick_position
drop_position

REQUESTS_INFO
1      484       532       28874     189       199       122       122       6         1         2         
1      371       499       28783     52        52        206       206       26        1         2         
1      410       720       28888     52        290       114       114       66        1         3         
1      287       598       28889     299       189       117       117       76        1         2         
3      909       905       28809     290       290       265       265       93        1         2         
1      501       438       28885     52        100       161       161       97        1         3         
3      1003      824       28748     291       291       272       272       127       1         2         
3      269       531       28810     127       189       219       219       130       1         2         
2      454       21        28883     52        98        150       150       141       1         3         
1      392       578       28863     52        189       124       124       148       1         2         
4      804       961       28881     291       291       148       148       168       1         2         
1      865       176       28870     290       174       164       164       211       1         4         
2      839       116       28854     290       9         183       183       214       1         3         
3      906       990       28742     290       290       336       336       220       1         2         
2      199       157       28854     178       54        226       226       232       1         2         
3      1248      1068      28875     129       291       165       165       284       1         2         
1      349       452       28856     127       52        119       119       296       1         3         
1      736       778       28867     131       131       147       147       308       1         2         
1      291       135       28866     87        286       171       171       344       1         2         
1      1150      972       28785     291       290       265       265       370       1         2         
1      678       721       28862     290       290       143       143       393       1         2         
4      818       649       28408     290       189       645       645       411       1         2         
3      768       605       28868     290       189       152       152       427       1         2         
1      940       1043      28823     291       291       231       231       466       1         2         
1      873       672       28873     291       189       142       142       504       1         2         
1      458       652       28808     52        189       194       194       524       1         2         
1      947       882       28849     290       290       194       194       548       1         2         
1      1225      1025      28887     192       291       182       182       551       1         3         
1      505       441       28849     52        168       138       138       562       1         2         
1      1371      686       28860     129       131       241       241       612       1         3         
3      860       722       28850     290       290       198       198       615       1         2         
4      440       419       28885     168       168       106       106       628       1         2         
1      354       651       28815     119       189       189       189       639       1         3         
1      391       432       28857     52        52        178       178       651       1         2         
1      476       272       28844     52        127       235       235       662       1         2         
1      217       604       28858     87        189       143       143       763       1         2         
1      252       627       28854     206       189       157       157       775       1         3         
1      924       580       28829     290       189       168       168       789       1         3         
3      663       694       28870     131       189       161       161       811       1         2         
3      1268      1212      28832     129       129       244       244       875       1         2         
1      355       698       28889     119       189       160       160       879       1         2         
1      305       136       28875     299       286       172       172       901       1         3         
1      884       991       28879     290       290       115       115       908       1         3         
1      936       675       28877     291       189       122       122       949       1         3         
4      802       1209      28862     291       192       168       168       967       1         2         
1      354       116       28832     119       9         168       168       976       1         3         
3      1245      1087      28868     192       291       160       160       993       1         3         
3      1461      1336      28832     129       129       194       194       1002      1         2         
1      924       968       28833     290       290       178       178       1035      1         2         
2      1068      923       28860     291       290       201       201       1038      1         3         
1      398       510       28873     168       199       160       160       1100      1         2         
1      791       969       28869     290       290       172       172       1110      1         2         
1      386       45        28842     299       98        176       176       1157      1         3         
1      791       791       28887     290       290       126       126       1165      1         2         
1      814       700       28832     290       290       184       184       1168      1         2         
1      434       354       28860     52        119       167       167       1172      1         2         
2      416       502       28888     100       52        111       111       1178      1         2         
1      745       990       28877     290       290       145       145       1191      1         3         
2      860       650       28868     290       189       153       153       1196      1         4         
3      860       650       28868     290       189       180       180       1239      1         2         
3      280       1075      28865     277       84        250       250       1240      1         3         
1      618       669       28886     131       280       104       104       1253      1         3         
1      171       78        28869     286       9         120       120       1256      1         2         
1      992       605       28859     290       189       172       172       1258      1         2         
1      1131      980       28834     291       291       250       250       1261      1         2         
1      789       1011      28842     290       84        153       153       1265      1         3         
1      991       929       28870     290       290       135       135       1270      1         2         
1      817       721       28864     290       290       132       132       1271      1         3         
2      852       673       28866     291       189       151       151       1283      1         2         
3      926       622       28846     290       280       214       214       1288      1         3         
1      1417      710       28877     129       131       191       191       1290      1         2         
1      772       512       28847     290       199       131       131       1347      1         3         
2      947       170       28884     290       286       159       159       1356      1         3         
1      438       368       28873     100       299       141       141       1370      1         2         
2      352       526       28854     119       52        187       187       1381      1         3         
2      924       19        28838     290       98        170       170       1394      1         3         
1      1087      1011      28863     291       84        142       142       1395      1         3         
1      727       390       28884     290       52        101       101       1397      1         4         
2      392       722       28823     52        290       175       175       1413      1         2         
2      1160      1236      28879     84        84        104       104       1437      1         2         
3      309       780       28784     127       291       286       286       1438      1         3         
3      231       499       28871     266       52        127       127       1460      1         2         
1      817       648       28864     290       189       132       132       1471      1         3         
1      841       835       28875     290       290       163       163       1488      1         2         
1      812       698       28870     290       189       133       133       1490      1         2         
1      863       306       28882     290       299       177       177       1491      1         2         
1      325       555       28887     299       199       120       120       1494      1         3         
3      512       604       28890     199       189       0         0         0         0         0         
3      512       604       28890     199       189       0         0         0         0         0         
1      718       760       28890     189       291       0         0         0         0         0         
1      791       947       28890     290       290       0         0         0         0         0         
1      578       507       28890     189       189       0         0         0         0         0         
1      1209      1046      28890     192       291       0         0         0         0         0         
2      511       355       28890     199       119       0         0         0         0         0         
2      207       328       28890     286       299       0         0         0         0         0         
1      1044      842       28890     291       290       0         0         0         0         0         
1      560       772       28890     189       290       0         0         0         0         0         
1      527       625       28891     52        189       0         0         0         0         0         
1      195       396       28891     207       119       0         0         0         0         0         
1      48        1012      28891     98        84        0         0         0         0         0         
1      850       939       28891     291       291       0         0         0         0         0         
1      85        314       28892     287       119       0         0         0         0         0         
1      627       726       28892     189       290       0         0         0         0         0         
2      599       570       28892     280       52        0         0         0         0         0         
3      599       570       28892     280       52        0         0         0         0         0         
1      527       438       28892     52        100       0         0         0         0         0         
1      723       1075      28892     290       84        0         0         0         0         0         
1      1225      860       28894     192       290       0         0         0         0         0         
1      200       230       28894     87        266       0         0         0         0         0         
3      885       701       28894     290       290       0         0         0         0         0         
3      885       701       28894     290       290       0         0         0         0         0         
1      373       721       28894     119       290       0         0         0         0         0         
1      237       394       28894     87        100       0         0         0         0         0         
1      827       598       28895     291       189       0         0         0         0         0         
1      46        79        28895     98        98        0         0         0         0         0         
1      333       766       28895     119       290       0         0         0         0         0         
1      842       628       28896     290       189       0         0         0         0         0         
1      606       116       28896     189       9         0         0         0         0         0         
2      703       625       28896     290       189       0         0         0         0         0         
1      673       556       28896     189       199       0         0         0         0         0         
1      628       462       28896     189       189       0         0         0         0         0         
2      864       727       28896     290       290       0         0         0         0         0         
1      415       232       28896     100       266       0         0         0         0         0         
1      780       728       28897     291       290       0         0         0         0         0         
1      184       259       28897     87        87        0         0         0         0         0         
1      473       311       28897     52        87        0         0         0         0         0         
3      665       267       28897     131       266       0         0         0         0         0         
3      665       267       28897     131       266       0         0         0         0         0         
1      1187      1542      28897     291       296       0         0         0         0         0         
1      152       292       28897     9         87        0         0         0         0         0         
1      546       689       28898     52        131       0         0         0         0         0         
1      710       19        28898     131       98        0         0         0         0         0         
1      847       578       28898     291       189       0         0         0         0         0         
3      394       358       28898     100       168       0         0         0         0         0         
3      394       358       28898     100       168       0         0         0         0         0         
1      771       170       28898     290       286       0         0         0         0         0         
1      207       325       28899     286       299       0         0         0         0         0         
1      438       1504      28899     100       296       0         0         0         0         0         
1      1207      1248      28900     192       129       0         0         0         0         0         
3      721       604       28900     290       189       0         0         0         0         0         
2      720       670       28900     290       280       0         0         0         0         0         
3      721       604       28900     290       189       0         0         0         0         0         
3      559       46        28901     189       98        0         0         0         0         0         
1      438       48        28901     100       98        0         0         0         0         0         
1      535       650       28901     189       189       0         0         0         0         0         
1      526       604       28901     52        189       0         0         0         0         0         
1      779       527       28901     131       52        0         0         0         0         0         
1      1174      1152      28901     129       291       0         0         0         0         0         
1      744       837       28901     290       290       0         0         0         0         0         
2      559       46        28901     189       98        0         0         0         0         0         
1      334       352       28902     119       119       0         0         0         0         0         
3      133       523       28902     9         52        0         0         0         0         0         
2      133       523       28902     9         52        0         0         0         0         0         
1      583       693       28902     189       280       0         0         0         0         0         
1      551       748       28902     189       290       0         0         0         0         0         
2      745       951       28902     290       290       0         0         0         0         0         
3      745       951       28902     290       290       0         0         0         0         0         
1      556       138       28903     199       57        0         0         0         0         0         
1      527       558       28903     52        189       0         0         0         0         0         
1      310       325       28903     127       299       0         0         0         0         0         
1      735       134       28903     131       9         0         0         0         0         0         
1      738       651       28903     189       189       0         0         0         0         0         
1      937       1066      28904     291       291       0         0         0         0         0         
1      228       811       28904     266       290       0         0         0         0         0         
2      788       961       28904     290       291       0         0         0         0         0         
3      788       961       28904     290       291       0         0         0         0         0         
1      711       1074      28904     131       84        0         0         0         0         0         
1      435       553       28904     52        189       0         0         0         0         0         
1      285       116       28905     299       9         0         0         0         0         0         
1      726       1045      28905     290       291       0         0         0         0         0         
1      927       969       28905     290       290       0         0         0         0         0         
1      534       779       28905     199       131       0         0         0         0         0         
2      702       968       28905     290       290       0         0         0         0         0         
1      1047      652       28905     291       189       0         0         0         0         0         
1      629       559       28905     189       189       0         0         0         0         0         
1      811       990       28905     290       290       0         0         0         0         0         
1      345       624       28906     299       189       0         0         0         0         0         
1      835       947       28906     290       290       0         0         0         0         0         
3      947       627       28906     290       189       0         0         0         0         0         
2      947       627       28906     290       189       0         0         0         0         0         
1      771       139       28907     290       57        0         0         0         0         0         
1      458       581       28907     52        189       0         0         0         0         0         
3      527       461       28907     52        189       0         0         0         0         0         
2      527       461       28907     52        189       0         0         0         0         0         
1      621       766       28907     280       290       0         0         0         0         0         
1      1117      1236      28908     84        84        0         0         0         0         0         
1      609       332       28908     189       87        0         0         0         0         0         
3      618       694       28909     131       189       0         0         0         0         0         
3      618       694       28909     131       189       0         0         0         0         0         
1      254       632       28909     87        189       0         0         0         0         0         
1      415       116       28909     100       9         0         0         0         0         0         
1      721       811       28909     290       290       0         0         0         0         0         
1      556       116       28909     199       9         0         0         0         0         0         
1      850       1023      28910     291       291       0         0         0         0         0         
1      173       1199      28910     286       84        0         0         0         0         0         
3      863       746       28910     290       290       0         0         0         0         0         
3      372       372       28910     119       119       0         0         0         0         0         
3      372       372       28910     119       119       0         0         0         0         0         
2      863       746       28910     290       290       0         0         0         0         0         
2      835       836       28910     290       290       0         0         0         0         0         
1      230       811       28910     266       290       0         0         0         0         0         
3      463       694       28911     168       189       0         0         0         0         0         
2      463       694       28911     168       189       0         0         0         0         0         
1      416       534       28911     100       199       0         0         0         0         0         
1      462       554       28911     189       189       0         0         0         0         0         
1      861       749       28911     290       290       0         0         0         0         0         
3      391       373       28911     52        119       0         0         0         0         0         
1      745       604       28911     290       189       0         0         0         0         0         
1      791       417       28911     290       100       0         0         0         0         0         
2      333       358       28912     119       168       0         0         0         0         0         
1      551       717       28912     189       189       0         0         0         0         0         
1      608       651       28912     189       189       0         0         0         0         0         
1      479       117       28912     52        286       0         0         0         0         0         
1      1418      1075      28912     129       84        0         0         0         0         0         
1      376       627       28912     168       189       0         0         0         0         0         
1      864       748       28912     290       290       0         0         0         0         0         
3      333       358       28912     119       168       0         0         0         0         0         
3      749       650       28912     290       189       0         0         0         0         0         
3      749       650       28912     290       189       0         0         0         0         0         
1      959       859       28912     291       290       0         0         0         0         0         
2      485       482       28913     189       189       0         0         0         0         0         
3      386       691       28913     299       131       0         0         0         0         0         
1      961       600       28913     291       280       0         0         0         0         0         
1      770       887       28913     290       290       0         0         0         0         0         
1      443       676       28913     168       189       0         0         0         0         0         
1      857       651       28914     290       189       0         0         0         0         0         
1      438       597       28914     100       131       0         0         0         0         0         
3      1001      1225      28914     291       192       0         0         0         0         0         
2      1001      1225      28914     291       192       0         0         0         0         0         
1      393       333       28914     52        119       0         0         0         0         0         
1      719       693       28914     189       280       0         0         0         0         0         
1      735       45        28914     131       98        0         0         0         0         0         
1      769       116       28914     290       9         0         0         0         0         0         
1      442       355       28914     168       119       0         0         0         0         0         
1      874       352       28914     291       119       0         0         0         0         0         
1      1128      873       28915     291       291       0         0         0         0         0         
1      501       247       28915     52        266       0         0         0         0         0         
1      248       331       28915     266       127       0         0         0         0         0         
1      693       697       28916     280       189       0         0         0         0         0         
1      574       606       28916     189       189       0         0         0         0         0         
3      155       648       28916     286       189       0         0         0         0         0         
3      155       648       28916     286       189       0         0         0         0         0         
1      99        473       28916     286       52        0         0         0         0         0         
2      479       358       28917     52        168       0         0         0         0         0         
2      1087      720       28917     291       290       0         0         0         0         0         
3      1087      720       28917     291       290       0         0         0         0         0         
1      981       827       28917     291       291       0         0         0         0         0         
1      958       310       28918     291       127       0         0         0         0         0         
1      504       434       28918     52        52        0         0         0         0         0         
1      499       230       28918     52        266       0         0         0         0         0         
1      327       529       28918     299       189       0         0         0         0         0         
1      115       462       28918     9         189       0         0         0         0         0         
1      549       575       28918     52        189       0         0         0         0         0         
1      549       599       28918     52        280       0         0         0         0         0         
1      188       523       28919     286       52        0         0         0         0         0         
3      749       670       28919     290       280       0         0         0         0         0         
1      232       651       28919     266       189       0         0         0         0         0         
1      602       413       28919     189       52        0         0         0         0         0         
1      349       556       28919     127       199       0         0         0         0         0         
